N = 8;
H = 6;
T = 2;

avail = array3d(1..N, 1..H, 1..T, [7, 0, 0, 4, 9, 0, 1, 1, 8, 4, 10, 6, 8, 2, 3, 4, 2, 9, 5, 3, 3, 3, 5, 8, 0, 8, 5, 7, 0, 8, 0, 9, 0, 8, 0, 9, 3, 3, 0, 7, 9, 0, 6, 10, 6, 10, 8, 9, 1, 2, 7, 2, 4, 8, 5, 8, 5, 2, 3, 9, 6, 8, 5, 6, 7, 4, 9, 7, 2, 1, 3, 3, 6, 6, 3, 3, 9, 7, 1, 3, 4, 1, 3, 1, 2, 4, 2, 8, 9, 5, 9, 1, 9, 4, 0, 8]);

r = array2d(1..H, 1..T, [4, 2, 2, 2, 0, 2, 3, 2, 2, 2, 4, 0]);
